NAME: random-62-4658
TYPE: TSP
COMMENT: size=62 seed=4658
DIMENSION: 126
EDGE_WEIGHT_TYPE: EUC_2D
NODE_COORD_SECTION
+0 6 878
-0 6 878
+1 733 683
-1 259 910
+2 226 131
-2 978 477
+3 846 469
-3 343 825
+4 644 37
-4 825 479
+5 606 96
-5 801 855
+6 653 176
-6 226 809
+7 689 328
-7 546 658
+8 262 699
-8 64 898
+9 120 661
-9 430 671
+10 236 504
-10 792 765
+11 132 524
-11 550 238
+12 962 202
-12 868 99
+13 635 992
-13 113 995
+14 490 861
-14 695 720
+15 265 778
-15 854 350
+16 93 174
-16 233 430
+17 166 993
-17 280 15
+18 200 922
-18 21 151
+19 653 937
-19 741 413
+20 485 651
-20 651 376
+21 718 306
-21 527 266
+22 973 798
-22 62 312
+23 445 26
-23 625 248
+24 535 153
-24 866 454
+25 864 413
-25 79 814
+26 894 250
-26 627 235
+27 69 145
-27 572 203
+28 9 747
-28 60 550
+29 68 12
-29 81 367
+30 399 993
-30 441 201
+31 35 962
-31 258 41
+32 174 83
-32 79 231
+33 56 685
-33 27 736
+34 741 7
-34 973 972
+35 264 648
-35 874 76
+36 68 932
-36 100 525
+37 852 23
-37 409 512
+38 721 192
-38 643 377
+39 432 729
-39 425 128
+40 296 255
-40 943 598
+41 200 99
-41 818 685
+42 617 955
-42 391 377
+43 291 119
-43 195 673
+44 734 659
-44 325 486
+45 14 204
-45 80 329
+46 881 36
-46 613 579
+47 179 537
-47 587 612
+48 618 294
-48 810 381
+49 779 529
-49 20 889
+50 329 420
-50 338 653
+51 981 761
-51 637 502
+52 995 810
-52 32 225
+53 147 27
-53 893 387
+54 1 789
-54 0 314
+55 261 229
-55 484 567
+56 705 643
-56 922 926
+57 785 15
-57 425 665
+58 1 216
-58 31 786
+59 865 51
-59 904 143
+60 858 334
-60 71 169
+61 754 21
-61 317 459
+62 250 908
-62 58 216
PRECEDENCE_SECTION
+0 -0
+1 -1
+2 -2
+3 -3
+4 -4
+5 -5
+6 -6
+7 -7
+8 -8
+9 -9
+10 -10
+11 -11
+12 -12
+13 -13
+14 -14
+15 -15
+16 -16
+17 -17
+18 -18
+19 -19
+20 -20
+21 -21
+22 -22
+23 -23
+24 -24
+25 -25
+26 -26
+27 -27
+28 -28
+29 -29
+30 -30
+31 -31
+32 -32
+33 -33
+34 -34
+35 -35
+36 -36
+37 -37
+38 -38
+39 -39
+40 -40
+41 -41
+42 -42
+43 -43
+44 -44
+45 -45
+46 -46
+47 -47
+48 -48
+49 -49
+50 -50
+51 -51
+52 -52
+53 -53
+54 -54
+55 -55
+56 -56
+57 -57
+58 -58
+59 -59
+60 -60
+61 -61
+62 -62
EOF
